100 106351

 425 135
375 374
868 232
41 39
484 964
260 803
441 819
926 47
856 36
84 832
46 95
440 985
671 361
856 525
519 146
986 917
845 368
438 65
136 228
183 754
709 520
172 816
909 853
861 555
788 756
590 181
928 501
956 597
690 155
539 787
120 535
281 627
308 818
708 435
277 811
530 99
295 616
783 372
53 563
806 362
432 112
52 453
728 756
72 169
28 584
469 139
912 848
764 231
886 239
912 984
547 253
401 981
201 436
761 919
611 561
820 422
989 303
999 72
466 263
652 834
595 222
560 77
790 62
379 471
760 157
895 806
177 125
52 741
79 852
385 161
834 541
576 626
8 591
214 535
25 106
450 131
768 357
755 989
969 685
457 776
461 854
198 885
94 797
719 2
947 233
437 369
527 251
690 946
967 833
378 108
587 276
104 180
806 725
680 293
962 584
627 795
39 175
458 123
364 227
785 902
